Route #1: 67 46 34 52 45 4 75
Route #2: 51 3 44 32 9 39 72 40 17
Route #3: 26 7 35 53 11 14 19 8
Route #4: 38 65 66 59 54 13 27 57 15 29
Route #5: 5 37 20 70 60 71 69 36 47 48 30 68
Route #6: 12 58 10 31 55 25 50 18 24 49
Route #7: 21 61 22 64 42 43 41 56 23 63 73
Route #8: 2 74 28 62 1 33 16 6
Cost 783